
******************************************************************************
This program contains Ipopt, a library for large-scale nonlinear optimization.
 Ipopt is released as open source code under the Eclipse Public License (EPL).
         For more information visit https://github.com/coin-or/Ipopt
******************************************************************************

This is Ipopt version 3.14.19, running with linear solver MUMPS 5.8.1.

Number of nonzeros in equality constraint Jacobian...:     4389
Number of nonzeros in inequality constraint Jacobian.:        0
Number of nonzeros in Lagrangian Hessian.............:     1050

Total number of variables............................:     1287
                     variables with only lower bounds:        0
                variables with lower and upper bounds:      457
                     variables with only upper bounds:        0
Total number of equality constraints.................:     1274
Total number of inequality constraints...............:        0
        inequality constraints with only lower bounds:        0
   inequality constraints with lower and upper bounds:        0
        inequality constraints with only upper bounds:        0

iter    objective    inf_pr   inf_du lg(mu)  ||d||  lg(rg) alpha_du alpha_pr  ls
   0  9.8522615e+00 9.81e+01 5.33e-04  -1.0 0.00e+00    -  0.00e+00 0.00e+00   0
   1  9.8592315e+00 2.31e+00 4.36e+01  -1.0 9.72e+01    -  2.20e-02 1.00e+00h  1
   2  9.8565961e+00 5.13e-01 4.80e-01  -1.0 3.08e+00    -  9.52e-01 1.00e+00h  1
   3  9.8801100e+00 4.53e+01 2.91e+00  -1.0 3.28e+01    -  7.70e-01 1.00e+00f  1
   4  9.8839670e+00 3.78e+01 5.37e+00  -1.0 2.85e+01    -  9.99e-01 1.60e-01h  1
   5  9.8904921e+00 1.27e-01 2.08e-03  -1.0 1.97e+01    -  1.00e+00 1.00e+00h  1
   6  9.8646965e+00 9.49e-01 6.89e-03  -2.5 1.06e+00    -  1.00e+00 1.00e+00h  1
   7  9.8630493e+00 2.70e-01 8.57e-05  -2.5 1.52e+00    -  1.00e+00 1.00e+00h  1
   8  9.8629168e+00 5.20e-04 6.61e-07  -2.5 3.25e-01    -  1.00e+00 1.00e+00h  1
   9  9.8625156e+00 3.12e-03 2.39e-02  -3.8 1.55e-01    -  7.93e-01 1.00e+00h  1
iter    objective    inf_pr   inf_du lg(mu)  ||d||  lg(rg) alpha_du alpha_pr  ls
  10  9.8552887e+00 1.63e-03 7.27e-03  -3.8 3.01e+00    -  3.66e-01 1.00e+00h  1
  11  9.8519142e+00 4.18e-04 5.55e-04  -3.8 1.63e+00    -  1.00e+00 1.00e+00h  1
  12  9.8480968e+00 5.46e-04 7.35e-04  -5.7 1.84e+00    -  7.74e-01 1.00e+00h  1
  13  9.8478978e+00 2.19e-06 2.26e-06  -5.7 1.31e-01    -  1.00e+00 1.00e+00h  1
  14  9.8478592e+00 6.86e-08 5.80e-07  -8.6 1.95e-02    -  9.99e-01 9.95e-01h  1
  15  9.8478593e+00 4.88e-12 1.70e-13  -8.6 2.38e-05    -  1.00e+00 1.00e+00h  1

Number of Iterations....: 15

                                   (scaled)                 (unscaled)
Objective...............:   9.8478593010389517e+00    9.8478593010389517e+00
Dual infeasibility......:   1.7030821197749901e-13    1.7030821197749901e-13
Constraint violation....:   4.8832049515212276e-12    4.8832049515212276e-12
Variable bound violation:   0.0000000000000000e+00    0.0000000000000000e+00
Complementarity.........:   2.5780484195352761e-09    2.5780484195352761e-09
Overall NLP error.......:   2.5780484195352761e-09    2.5780484195352761e-09


Number of objective function evaluations             = 16
Number of objective gradient evaluations             = 16
Number of equality constraint evaluations            = 16
Number of inequality constraint evaluations          = 0
Number of equality constraint Jacobian evaluations   = 16
Number of inequality constraint Jacobian evaluations = 0
Number of Lagrangian Hessian evaluations             = 15
Total seconds in IPOPT                               = 0.191

EXIT: Optimal Solution Found.
